p edge 2298 2253
e 1 2
e 1 3
e 1 4
e 1 5
e 1 6
e 1 7
e 1 8
e 1 9
e 1 10
e 1 11
e 1 12
e 1 13
e 1 14
e 1 15
e 1 16
e 1 17
e 1 18
e 1 19
e 1 20
e 1 21
e 1 22
e 1 23
e 1 24
e 1 25
e 1 26
e 1 27
e 1 28
e 1 29
e 1 30
e 1 31
e 1 32
e 1 33
e 1 34
e 1 35
e 1 36
e 1 37
e 1 38
e 1 39
e 1 40
e 1 41
e 1 42
e 1 43
e 1 44
e 1 45
e 1 46
e 1 47
e 1 48
e 1 49
e 1 50
e 1 51
e 1 52
e 1 53
e 1 54
e 1 55
e 1 56
e 1 57
e 1 58
e 1 59
e 1 60
e 1 61
e 1 62
e 1 63
e 1 64
e 1 65
e 1 66
e 1 67
e 1 68
e 1 69
e 1 70
e 1 71
e 1 72
e 1 73
e 74 75
e 74 76
e 74 77
e 74 78
e 74 79
e 74 80
e 74 81
e 74 82
e 74 83
e 74 84
e 74 85
e 74 86
e 74 87
e 74 88
e 74 89
e 74 90
e 74 91
e 74 92
e 74 93
e 74 94
e 74 95
e 74 96
e 74 97
e 74 98
e 74 99
e 74 100
e 74 101
e 74 102
e 74 103
e 74 104
e 74 105
e 74 106
e 74 107
e 74 108
e 74 109
e 74 110
e 74 111
e 74 112
e 74 113
e 74 114
e 74 115
e 74 116
e 74 117
e 74 118
e 74 119
e 74 120
e 74 121
e 74 122
e 74 123
e 74 124
e 74 125
e 74 126
e 127 128
e 127 129
e 127 130
e 127 131
e 127 132
e 127 133
e 127 134
e 127 135
e 127 136
e 127 137
e 127 138
e 127 139
e 127 140
e 127 141
e 127 142
e 127 143
e 127 144
e 127 145
e 127 146
e 127 147
e 127 148
e 127 149
e 127 150
e 127 151
e 127 152
e 127 153
e 127 154
e 127 155
e 127 156
e 127 157
e 127 158
e 127 159
e 127 160
e 127 161
e 127 162
e 127 163
e 127 164
e 127 165
e 127 166
e 127 167
e 127 168
e 127 169
e 127 170
e 127 171
e 127 172
e 127 173
e 127 174
e 127 175
e 127 176
e 127 177
e 127 178
e 127 179
e 127 180
e 127 181
e 127 182
e 127 183
e 127 184
e 127 185
e 127 186
e 127 187
e 127 188
e 127 189
e 190 191
e 190 192
e 190 193
e 190 194
e 190 195
e 190 196
e 190 197
e 190 198
e 190 199
e 190 200
e 190 201
e 190 202
e 190 203
e 190 204
e 190 205
e 190 206
e 190 207
e 190 208
e 190 209
e 190 210
e 190 211
e 190 212
e 190 213
e 190 214
e 190 215
e 190 216
e 190 217
e 190 218
e 190 219
e 190 220
e 190 221
e 190 222
e 190 223
e 190 224
e 190 225
e 190 226
e 190 227
e 190 228
e 190 229
e 190 230
e 190 231
e 190 232
e 190 233
e 190 234
e 190 235
e 190 236
e 190 237
e 190 238
e 190 239
e 190 240
e 190 241
e 190 242
e 190 243
e 190 244
e 190 245
e 190 246
e 190 247
e 190 248
e 190 249
e 190 250
e 190 251
e 190 252
e 190 253
e 190 254
e 190 255
e 190 256
e 190 257
e 190 258
e 190 259
e 190 260
e 190 261
e 190 262
e 190 263
e 190 264
e 190 265
e 190 266
e 190 267
e 190 268
e 269 270
e 269 271
e 269 272
e 269 273
e 269 274
e 269 275
e 269 276
e 269 277
e 269 278
e 269 279
e 269 280
e 269 281
e 269 282
e 269 283
e 269 284
e 269 285
e 269 286
e 269 287
e 269 288
e 269 289
e 269 290
e 269 291
e 269 292
e 269 293
e 269 294
e 269 295
e 269 296
e 269 297
e 269 298
e 269 299
e 269 300
e 269 301
e 269 302
e 269 303
e 269 304
e 269 305
e 269 306
e 269 307
e 269 308
e 269 309
e 269 310
e 269 311
e 269 312
e 269 313
e 269 314
e 269 315
e 269 316
e 269 317
e 269 318
e 269 319
e 269 320
e 269 321
e 269 322
e 269 323
e 269 324
e 269 325
e 326 327
e 326 328
e 326 329
e 326 330
e 326 331
e 326 332
e 326 333
e 326 334
e 326 335
e 326 336
e 326 337
e 326 338
e 326 339
e 326 340
e 326 341
e 326 342
e 326 343
e 326 344
e 326 345
e 326 346
e 326 347
e 326 348
e 326 349
e 326 350
e 326 351
e 326 352
e 326 353
e 326 354
e 326 355
e 326 356
e 326 357
e 326 358
e 326 359
e 326 360
e 326 361
e 326 362
e 326 363
e 326 364
e 326 365
e 326 366
e 326 367
e 326 368
e 326 369
e 326 370
e 326 371
e 326 372
e 326 373
e 326 374
e 326 375
e 326 376
e 326 377
e 326 378
e 326 379
e 326 380
e 326 381
e 326 382
e 326 383
e 326 384
e 326 385
e 326 386
e 326 387
e 326 388
e 326 389
e 326 390
e 326 391
e 326 392
e 326 393
e 326 394
e 326 395
e 326 396
e 326 397
e 326 398
e 326 399
e 326 400
e 401 402
e 401 403
e 401 404
e 401 405
e 401 406
e 401 407
e 401 408
e 401 409
e 401 410
e 401 411
e 401 412
e 401 413
e 401 414
e 401 415
e 401 416
e 401 417
e 401 418
e 401 419
e 401 420
e 401 421
e 401 422
e 401 423
e 401 424
e 401 425
e 401 426
e 401 427
e 401 428
e 401 429
e 401 430
e 401 431
e 401 432
e 401 433
e 401 434
e 401 435
e 401 436
e 401 437
e 401 438
e 401 439
e 401 440
e 401 441
e 401 442
e 401 443
e 401 444
e 401 445
e 401 446
e 401 447
e 401 448
e 401 449
e 401 450
e 401 451
e 401 452
e 401 453
e 401 454
e 401 455
e 401 456
e 401 457
e 401 458
e 401 459
e 401 460
e 401 461
e 462 463
e 462 464
e 462 465
e 462 466
e 462 467
e 462 468
e 462 469
e 462 470
e 462 471
e 462 472
e 462 473
e 462 474
e 462 475
e 462 476
e 462 477
e 462 478
e 462 479
e 462 480
e 462 481
e 462 482
e 462 483
e 462 484
e 462 485
e 462 486
e 462 487
e 462 488
e 462 489
e 462 490
e 462 491
e 462 492
e 462 493
e 462 494
e 462 495
e 462 496
e 462 497
e 462 498
e 462 499
e 462 500
e 462 501
e 462 502
e 462 503
e 462 504
e 462 505
e 462 506
e 462 507
e 462 508
e 462 509
e 462 510
e 462 511
e 462 512
e 462 513
e 462 514
e 462 515
e 462 516
e 462 517
e 462 518
e 462 519
e 462 520
e 462 521
e 462 522
e 462 523
e 462 524
e 462 525
e 462 526
e 462 527
e 462 528
e 462 529
e 530 531
e 530 532
e 530 533
e 530 534
e 530 535
e 530 536
e 530 537
e 530 538
e 530 539
e 530 540
e 530 541
e 530 542
e 530 543
e 530 544
e 530 545
e 530 546
e 530 547
e 530 548
e 530 549
e 530 550
e 530 551
e 530 552
e 530 553
e 530 554
e 530 555
e 530 556
e 530 557
e 530 558
e 530 559
e 530 560
e 530 561
e 530 562
e 530 563
e 530 564
e 530 565
e 530 566
e 530 567
e 530 568
e 530 569
e 530 570
e 530 571
e 530 572
e 530 573
e 530 574
e 530 575
e 530 576
e 530 577
e 530 578
e 530 579
e 530 580
e 530 581
e 530 582
e 583 584
e 583 585
e 583 586
e 583 587
e 583 588
e 583 589
e 583 590
e 583 591
e 583 592
e 583 593
e 583 594
e 583 595
e 583 596
e 583 597
e 583 598
e 583 599
e 583 600
e 583 601
e 583 602
e 583 603
e 583 604
e 583 605
e 583 606
e 583 607
e 583 608
e 583 609
e 583 610
e 583 611
e 583 612
e 583 613
e 583 614
e 583 615
e 583 616
e 583 617
e 583 618
e 583 619
e 583 620
e 621 622
e 621 623
e 621 624
e 621 625
e 621 626
e 621 627
e 621 628
e 621 629
e 621 630
e 621 631
e 621 632
e 621 633
e 621 634
e 621 635
e 621 636
e 621 637
e 621 638
e 621 639
e 621 640
e 621 641
e 621 642
e 621 643
e 621 644
e 621 645
e 621 646
e 621 647
e 621 648
e 621 649
e 621 650
e 621 651
e 621 652
e 653 654
e 653 655
e 653 656
e 653 657
e 653 658
e 653 659
e 653 660
e 653 661
e 653 662
e 653 663
e 653 664
e 653 665
e 653 666
e 653 667
e 653 668
e 669 670
e 669 671
e 669 672
e 669 673
e 669 674
e 669 675
e 669 676
e 669 677
e 669 678
e 669 679
e 669 680
e 669 681
e 669 682
e 669 683
e 669 684
e 669 685
e 669 686
e 669 687
e 669 688
e 669 689
e 669 690
e 669 691
e 669 692
e 669 693
e 669 694
e 669 695
e 669 696
e 669 697
e 669 698
e 669 699
e 669 700
e 669 701
e 669 702
e 669 703
e 669 704
e 669 705
e 669 706
e 669 707
e 669 708
e 669 709
e 669 710
e 669 711
e 669 712
e 713 714
e 713 715
e 713 716
e 713 717
e 713 718
e 713 719
e 713 720
e 713 721
e 713 722
e 713 723
e 713 724
e 713 725
e 713 726
e 713 727
e 713 728
e 713 729
e 713 730
e 713 731
e 713 732
e 713 733
e 713 734
e 713 735
e 713 736
e 713 737
e 713 738
e 713 739
e 713 740
e 713 741
e 713 742
e 713 743
e 713 744
e 713 745
e 713 746
e 713 747
e 713 748
e 713 749
e 713 750
e 713 751
e 713 752
e 713 753
e 713 754
e 713 755
e 756 757
e 756 758
e 756 759
e 756 760
e 756 761
e 756 762
e 756 763
e 756 764
e 756 765
e 756 766
e 756 767
e 756 768
e 756 769
e 756 770
e 756 771
e 756 772
e 756 773
e 756 774
e 756 775
e 756 776
e 756 777
e 756 778
e 756 779
e 756 780
e 756 781
e 756 782
e 756 783
e 756 784
e 756 785
e 756 786
e 756 787
e 756 788
e 756 789
e 756 790
e 756 791
e 756 792
e 756 793
e 756 794
e 756 795
e 756 796
e 756 797
e 756 798
e 756 799
e 756 800
e 756 801
e 756 802
e 756 803
e 804 805
e 804 806
e 804 807
e 804 808
e 804 809
e 804 810
e 804 811
e 804 812
e 804 813
e 804 814
e 804 815
e 804 816
e 804 817
e 804 818
e 804 819
e 804 820
e 804 821
e 804 822
e 804 823
e 804 824
e 804 825
e 804 826
e 804 827
e 804 828
e 804 829
e 804 830
e 804 831
e 804 832
e 804 833
e 804 834
e 804 835
e 804 836
e 804 837
e 804 838
e 804 839
e 804 840
e 804 841
e 804 842
e 804 843
e 804 844
e 804 845
e 804 846
e 847 848
e 847 849
e 847 850
e 847 851
e 847 852
e 847 853
e 847 854
e 847 855
e 847 856
e 847 857
e 847 858
e 847 859
e 847 860
e 847 861
e 847 862
e 847 863
e 847 864
e 847 865
e 847 866
e 847 867
e 847 868
e 847 869
e 847 870
e 847 871
e 847 872
e 847 873
e 847 874
e 847 875
e 847 876
e 847 877
e 847 878
e 847 879
e 847 880
e 847 881
e 847 882
e 847 883
e 847 884
e 847 885
e 847 886
e 847 887
e 847 888
e 847 889
e 847 890
e 847 891
e 847 892
e 847 893
e 847 894
e 847 895
e 847 896
e 847 897
e 847 898
e 847 899
e 847 900
e 847 901
e 847 902
e 847 903
e 847 904
e 847 905
e 847 906
e 847 907
e 847 908
e 909 910
e 909 911
e 909 912
e 909 913
e 909 914
e 909 915
e 909 916
e 909 917
e 909 918
e 909 919
e 909 920
e 909 921
e 909 922
e 909 923
e 909 924
e 909 925
e 909 926
e 909 927
e 909 928
e 909 929
e 909 930
e 909 931
e 909 932
e 909 933
e 909 934
e 909 935
e 909 936
e 909 937
e 909 938
e 909 939
e 909 940
e 909 941
e 909 942
e 909 943
e 909 944
e 909 945
e 909 946
e 909 947
e 909 948
e 909 949
e 909 950
e 909 951
e 909 952
e 909 953
e 909 954
e 909 955
e 909 956
e 909 957
e 909 958
e 909 959
e 909 960
e 909 961
e 909 962
e 909 963
e 909 964
e 909 965
e 909 966
e 909 967
e 968 969
e 968 970
e 968 971
e 968 972
e 968 973
e 968 974
e 968 975
e 968 976
e 968 977
e 968 978
e 968 979
e 968 980
e 968 981
e 968 982
e 968 983
e 968 984
e 968 985
e 968 986
e 968 987
e 968 988
e 968 989
e 968 990
e 968 991
e 968 992
e 968 993
e 968 994
e 968 995
e 968 996
e 968 997
e 968 998
e 968 999
e 968 1000
e 968 1001
e 968 1002
e 968 1003
e 968 1004
e 968 1005
e 968 1006
e 968 1007
e 968 1008
e 968 1009
e 968 1010
e 968 1011
e 968 1012
e 968 1013
e 968 1014
e 968 1015
e 968 1016
e 968 1017
e 968 1018
e 968 1019
e 968 1020
e 968 1021
e 968 1022
e 968 1023
e 968 1024
e 968 1025
e 968 1026
e 968 1027
e 968 1028
e 968 1029
e 968 1030
e 968 1031
e 968 1032
e 968 1033
e 968 1034
e 968 1035
e 968 1036
e 968 1037
e 968 1038
e 968 1039
e 968 1040
e 968 1041
e 968 1042
e 968 1043
e 968 1044
e 968 1045
e 968 1046
e 968 1047
e 1048 1049
e 1048 1050
e 1048 1051
e 1048 1052
e 1048 1053
e 1048 1054
e 1048 1055
e 1048 1056
e 1048 1057
e 1048 1058
e 1048 1059
e 1048 1060
e 1048 1061
e 1048 1062
e 1048 1063
e 1048 1064
e 1048 1065
e 1048 1066
e 1048 1067
e 1048 1068
e 1048 1069
e 1048 1070
e 1048 1071
e 1048 1072
e 1048 1073
e 1048 1074
e 1048 1075
e 1048 1076
e 1048 1077
e 1048 1078
e 1048 1079
e 1048 1080
e 1048 1081
e 1048 1082
e 1048 1083
e 1048 1084
e 1048 1085
e 1048 1086
e 1048 1087
e 1048 1088
e 1048 1089
e 1048 1090
e 1048 1091
e 1048 1092
e 1048 1093
e 1048 1094
e 1048 1095
e 1048 1096
e 1048 1097
e 1048 1098
e 1048 1099
e 1048 1100
e 1048 1101
e 1048 1102
e 1048 1103
e 1048 1104
e 1048 1105
e 1048 1106
e 1048 1107
e 1048 1108
e 1048 1109
e 1048 1110
e 1048 1111
e 1048 1112
e 1048 1113
e 1048 1114
e 1048 1115
e 1048 1116
e 1048 1117
e 1048 1118
e 1119 1120
e 1119 1121
e 1119 1122
e 1119 1123
e 1119 1124
e 1119 1125
e 1119 1126
e 1119 1127
e 1119 1128
e 1119 1129
e 1119 1130
e 1119 1131
e 1119 1132
e 1119 1133
e 1119 1134
e 1119 1135
e 1119 1136
e 1119 1137
e 1119 1138
e 1119 1139
e 1119 1140
e 1119 1141
e 1119 1142
e 1119 1143
e 1119 1144
e 1119 1145
e 1119 1146
e 1119 1147
e 1119 1148
e 1119 1149
e 1119 1150
e 1119 1151
e 1119 1152
e 1119 1153
e 1119 1154
e 1119 1155
e 1119 1156
e 1119 1157
e 1119 1158
e 1119 1159
e 1119 1160
e 1119 1161
e 1119 1162
e 1119 1163
e 1119 1164
e 1119 1165
e 1119 1166
e 1119 1167
e 1119 1168
e 1119 1169
e 1119 1170
e 1119 1171
e 1119 1172
e 1119 1173
e 1119 1174
e 1119 1175
e 1119 1176
e 1119 1177
e 1119 1178
e 1119 1179
e 1119 1180
e 1119 1181
e 1119 1182
e 1119 1183
e 1119 1184
e 1119 1185
e 1119 1186
e 1119 1187
e 1119 1188
e 1119 1189
e 1119 1190
e 1119 1191
e 1119 1192
e 1119 1193
e 1119 1194
e 1119 1195
e 1196 1197
e 1196 1198
e 1196 1199
e 1196 1200
e 1196 1201
e 1196 1202
e 1196 1203
e 1196 1204
e 1196 1205
e 1196 1206
e 1196 1207
e 1196 1208
e 1196 1209
e 1196 1210
e 1196 1211
e 1196 1212
e 1196 1213
e 1196 1214
e 1196 1215
e 1196 1216
e 1196 1217
e 1196 1218
e 1196 1219
e 1196 1220
e 1196 1221
e 1196 1222
e 1196 1223
e 1196 1224
e 1196 1225
e 1196 1226
e 1196 1227
e 1228 1229
e 1228 1230
e 1228 1231
e 1228 1232
e 1228 1233
e 1228 1234
e 1228 1235
e 1228 1236
e 1228 1237
e 1228 1238
e 1228 1239
e 1228 1240
e 1228 1241
e 1228 1242
e 1228 1243
e 1228 1244
e 1228 1245
e 1228 1246
e 1228 1247
e 1228 1248
e 1228 1249
e 1228 1250
e 1228 1251
e 1228 1252
e 1228 1253
e 1228 1254
e 1228 1255
e 1228 1256
e 1228 1257
e 1228 1258
e 1228 1259
e 1228 1260
e 1228 1261
e 1228 1262
e 1228 1263
e 1228 1264
e 1228 1265
e 1228 1266
e 1228 1267
e 1228 1268
e 1228 1269
e 1228 1270
e 1228 1271
e 1228 1272
e 1228 1273
e 1228 1274
e 1228 1275
e 1228 1276
e 1228 1277
e 1228 1278
e 1228 1279
e 1228 1280
e 1228 1281
e 1228 1282
e 1228 1283
e 1228 1284
e 1228 1285
e 1228 1286
e 1228 1287
e 1228 1288
e 1228 1289
e 1228 1290
e 1228 1291
e 1228 1292
e 1228 1293
e 1228 1294
e 1228 1295
e 1228 1296
e 1228 1297
e 1228 1298
e 1228 1299
e 1228 1300
e 1228 1301
e 1228 1302
e 1228 1303
e 1228 1304
e 1305 1306
e 1305 1307
e 1305 1308
e 1305 1309
e 1305 1310
e 1305 1311
e 1305 1312
e 1305 1313
e 1305 1314
e 1305 1315
e 1305 1316
e 1305 1317
e 1318 1319
e 1318 1320
e 1318 1321
e 1318 1322
e 1318 1323
e 1318 1324
e 1318 1325
e 1318 1326
e 1318 1327
e 1318 1328
e 1318 1329
e 1330 1331
e 1330 1332
e 1330 1333
e 1330 1334
e 1330 1335
e 1330 1336
e 1330 1337
e 1330 1338
e 1330 1339
e 1330 1340
e 1330 1341
e 1330 1342
e 1330 1343
e 1330 1344
e 1330 1345
e 1330 1346
e 1330 1347
e 1330 1348
e 1330 1349
e 1330 1350
e 1330 1351
e 1330 1352
e 1330 1353
e 1330 1354
e 1330 1355
e 1330 1356
e 1330 1357
e 1330 1358
e 1330 1359
e 1330 1360
e 1330 1361
e 1330 1362
e 1330 1363
e 1330 1364
e 1330 1365
e 1330 1366
e 1330 1367
e 1330 1368
e 1330 1369
e 1330 1370
e 1330 1371
e 1330 1372
e 1330 1373
e 1330 1374
e 1330 1375
e 1330 1376
e 1330 1377
e 1330 1378
e 1330 1379
e 1330 1380
e 1330 1381
e 1330 1382
e 1330 1383
e 1330 1384
e 1330 1385
e 1330 1386
e 1330 1387
e 1330 1388
e 1330 1389
e 1330 1390
e 1330 1391
e 1330 1392
e 1330 1393
e 1394 1395
e 1394 1396
e 1394 1397
e 1394 1398
e 1394 1399
e 1394 1400
e 1394 1401
e 1394 1402
e 1394 1403
e 1394 1404
e 1394 1405
e 1394 1406
e 1394 1407
e 1408 1409
e 1408 1410
e 1408 1411
e 1408 1412
e 1408 1413
e 1408 1414
e 1408 1415
e 1408 1416
e 1408 1417
e 1408 1418
e 1408 1419
e 1408 1420
e 1408 1421
e 1408 1422
e 1408 1423
e 1408 1424
e 1408 1425
e 1408 1426
e 1408 1427
e 1408 1428
e 1408 1429
e 1408 1430
e 1408 1431
e 1408 1432
e 1408 1433
e 1408 1434
e 1408 1435
e 1408 1436
e 1408 1437
e 1408 1438
e 1408 1439
e 1408 1440
e 1408 1441
e 1408 1442
e 1408 1443
e 1408 1444
e 1408 1445
e 1408 1446
e 1408 1447
e 1408 1448
e 1408 1449
e 1408 1450
e 1408 1451
e 1408 1452
e 1408 1453
e 1408 1454
e 1408 1455
e 1408 1456
e 1408 1457
e 1408 1458
e 1408 1459
e 1408 1460
e 1408 1461
e 1408 1462
e 1408 1463
e 1408 1464
e 1408 1465
e 1408 1466
e 1408 1467
e 1408 1468
e 1408 1469
e 1408 1470
e 1408 1471
e 1408 1472
e 1408 1473
e 1408 1474
e 1475 1476
e 1475 1477
e 1475 1478
e 1475 1479
e 1475 1480
e 1475 1481
e 1475 1482
e 1475 1483
e 1475 1484
e 1475 1485
e 1475 1486
e 1475 1487
e 1475 1488
e 1475 1489
e 1475 1490
e 1475 1491
e 1475 1492
e 1475 1493
e 1475 1494
e 1475 1495
e 1475 1496
e 1475 1497
e 1475 1498
e 1475 1499
e 1475 1500
e 1475 1501
e 1475 1502
e 1475 1503
e 1475 1504
e 1475 1505
e 1475 1506
e 1475 1507
e 1475 1508
e 1475 1509
e 1475 1510
e 1475 1511
e 1475 1512
e 1475 1513
e 1475 1514
e 1475 1515
e 1516 1517
e 1516 1518
e 1516 1519
e 1516 1520
e 1516 1521
e 1516 1522
e 1516 1523
e 1516 1524
e 1516 1525
e 1516 1526
e 1516 1527
e 1516 1528
e 1516 1529
e 1516 1530
e 1516 1531
e 1516 1532
e 1516 1533
e 1516 1534
e 1516 1535
e 1516 1536
e 1516 1537
e 1516 1538
e 1516 1539
e 1516 1540
e 1516 1541
e 1516 1542
e 1516 1543
e 1516 1544
e 1516 1545
e 1516 1546
e 1516 1547
e 1516 1548
e 1516 1549
e 1516 1550
e 1516 1551
e 1516 1552
e 1516 1553
e 1516 1554
e 1555 1556
e 1555 1557
e 1555 1558
e 1555 1559
e 1555 1560
e 1555 1561
e 1555 1562
e 1555 1563
e 1555 1564
e 1555 1565
e 1555 1566
e 1555 1567
e 1555 1568
e 1555 1569
e 1555 1570
e 1555 1571
e 1555 1572
e 1555 1573
e 1555 1574
e 1555 1575
e 1555 1576
e 1555 1577
e 1555 1578
e 1555 1579
e 1555 1580
e 1555 1581
e 1555 1582
e 1555 1583
e 1555 1584
e 1555 1585
e 1555 1586
e 1555 1587
e 1555 1588
e 1555 1589
e 1555 1590
e 1555 1591
e 1555 1592
e 1555 1593
e 1555 1594
e 1555 1595
e 1555 1596
e 1555 1597
e 1555 1598
e 1555 1599
e 1555 1600
e 1555 1601
e 1555 1602
e 1555 1603
e 1555 1604
e 1555 1605
e 1555 1606
e 1555 1607
e 1555 1608
e 1555 1609
e 1610 1611
e 1610 1612
e 1610 1613
e 1610 1614
e 1610 1615
e 1610 1616
e 1610 1617
e 1610 1618
e 1610 1619
e 1610 1620
e 1610 1621
e 1610 1622
e 1610 1623
e 1610 1624
e 1610 1625
e 1610 1626
e 1610 1627
e 1610 1628
e 1610 1629
e 1610 1630
e 1610 1631
e 1610 1632
e 1610 1633
e 1610 1634
e 1610 1635
e 1610 1636
e 1610 1637
e 1610 1638
e 1610 1639
e 1610 1640
e 1610 1641
e 1610 1642
e 1610 1643
e 1610 1644
e 1610 1645
e 1610 1646
e 1610 1647
e 1610 1648
e 1610 1649
e 1610 1650
e 1610 1651
e 1610 1652
e 1610 1653
e 1610 1654
e 1610 1655
e 1610 1656
e 1610 1657
e 1610 1658
e 1610 1659
e 1610 1660
e 1610 1661
e 1610 1662
e 1610 1663
e 1610 1664
e 1610 1665
e 1610 1666
e 1610 1667
e 1610 1668
e 1610 1669
e 1610 1670
e 1610 1671
e 1610 1672
e 1610 1673
e 1610 1674
e 1610 1675
e 1610 1676
e 1610 1677
e 1610 1678
e 1610 1679
e 1610 1680
e 1610 1681
e 1682 1683
e 1682 1684
e 1682 1685
e 1682 1686
e 1682 1687
e 1682 1688
e 1682 1689
e 1682 1690
e 1682 1691
e 1682 1692
e 1682 1693
e 1682 1694
e 1682 1695
e 1682 1696
e 1682 1697
e 1682 1698
e 1682 1699
e 1682 1700
e 1682 1701
e 1682 1702
e 1682 1703
e 1682 1704
e 1682 1705
e 1682 1706
e 1682 1707
e 1682 1708
e 1682 1709
e 1682 1710
e 1682 1711
e 1682 1712
e 1682 1713
e 1682 1714
e 1682 1715
e 1682 1716
e 1682 1717
e 1682 1718
e 1682 1719
e 1682 1720
e 1682 1721
e 1682 1722
e 1682 1723
e 1724 1725
e 1724 1726
e 1724 1727
e 1724 1728
e 1724 1729
e 1724 1730
e 1724 1731
e 1724 1732
e 1724 1733
e 1724 1734
e 1724 1735
e 1724 1736
e 1724 1737
e 1724 1738
e 1724 1739
e 1724 1740
e 1724 1741
e 1724 1742
e 1724 1743
e 1724 1744
e 1724 1745
e 1724 1746
e 1724 1747
e 1724 1748
e 1724 1749
e 1724 1750
e 1724 1751
e 1724 1752
e 1724 1753
e 1724 1754
e 1724 1755
e 1724 1756
e 1757 1758
e 1757 1759
e 1757 1760
e 1757 1761
e 1757 1762
e 1757 1763
e 1757 1764
e 1757 1765
e 1757 1766
e 1757 1767
e 1757 1768
e 1757 1769
e 1757 1770
e 1757 1771
e 1757 1772
e 1757 1773
e 1757 1774
e 1757 1775
e 1757 1776
e 1757 1777
e 1757 1778
e 1757 1779
e 1757 1780
e 1757 1781
e 1757 1782
e 1757 1783
e 1757 1784
e 1757 1785
e 1757 1786
e 1757 1787
e 1757 1788
e 1757 1789
e 1757 1790
e 1757 1791
e 1757 1792
e 1757 1793
e 1757 1794
e 1757 1795
e 1757 1796
e 1757 1797
e 1757 1798
e 1757 1799
e 1757 1800
e 1757 1801
e 1757 1802
e 1757 1803
e 1757 1804
e 1757 1805
e 1757 1806
e 1757 1807
e 1757 1808
e 1757 1809
e 1757 1810
e 1757 1811
e 1757 1812
e 1757 1813
e 1757 1814
e 1757 1815
e 1757 1816
e 1757 1817
e 1757 1818
e 1757 1819
e 1757 1820
e 1757 1821
e 1757 1822
e 1757 1823
e 1757 1824
e 1757 1825
e 1757 1826
e 1757 1827
e 1757 1828
e 1829 1830
e 1829 1831
e 1829 1832
e 1829 1833
e 1829 1834
e 1829 1835
e 1829 1836
e 1829 1837
e 1829 1838
e 1829 1839
e 1829 1840
e 1829 1841
e 1829 1842
e 1829 1843
e 1829 1844
e 1829 1845
e 1829 1846
e 1829 1847
e 1829 1848
e 1829 1849
e 1829 1850
e 1829 1851
e 1829 1852
e 1829 1853
e 1829 1854
e 1829 1855
e 1829 1856
e 1829 1857
e 1829 1858
e 1829 1859
e 1829 1860
e 1829 1861
e 1829 1862
e 1829 1863
e 1829 1864
e 1829 1865
e 1829 1866
e 1829 1867
e 1829 1868
e 1829 1869
e 1829 1870
e 1829 1871
e 1829 1872
e 1829 1873
e 1829 1874
e 1829 1875
e 1829 1876
e 1829 1877
e 1829 1878
e 1829 1879
e 1829 1880
e 1829 1881
e 1829 1882
e 1829 1883
e 1829 1884
e 1829 1885
e 1886 1887
e 1886 1888
e 1886 1889
e 1886 1890
e 1886 1891
e 1886 1892
e 1886 1893
e 1886 1894
e 1886 1895
e 1886 1896
e 1886 1897
e 1886 1898
e 1886 1899
e 1886 1900
e 1886 1901
e 1886 1902
e 1886 1903
e 1886 1904
e 1886 1905
e 1886 1906
e 1886 1907
e 1886 1908
e 1886 1909
e 1886 1910
e 1886 1911
e 1886 1912
e 1886 1913
e 1886 1914
e 1886 1915
e 1886 1916
e 1886 1917
e 1886 1918
e 1886 1919
e 1886 1920
e 1886 1921
e 1886 1922
e 1886 1923
e 1886 1924
e 1886 1925
e 1886 1926
e 1927 1928
e 1927 1929
e 1927 1930
e 1927 1931
e 1927 1932
e 1927 1933
e 1927 1934
e 1927 1935
e 1927 1936
e 1927 1937
e 1927 1938
e 1927 1939
e 1940 1941
e 1940 1942
e 1940 1943
e 1940 1944
e 1940 1945
e 1940 1946
e 1940 1947
e 1940 1948
e 1940 1949
e 1940 1950
e 1940 1951
e 1940 1952
e 1940 1953
e 1940 1954
e 1940 1955
e 1940 1956
e 1940 1957
e 1940 1958
e 1940 1959
e 1940 1960
e 1940 1961
e 1940 1962
e 1940 1963
e 1940 1964
e 1940 1965
e 1940 1966
e 1940 1967
e 1940 1968
e 1940 1969
e 1970 1971
e 1970 1972
e 1970 1973
e 1970 1974
e 1970 1975
e 1970 1976
e 1970 1977
e 1970 1978
e 1970 1979
e 1970 1980
e 1970 1981
e 1970 1982
e 1970 1983
e 1970 1984
e 1970 1985
e 1970 1986
e 1970 1987
e 1970 1988
e 1970 1989
e 1970 1990
e 1970 1991
e 1970 1992
e 1970 1993
e 1970 1994
e 1970 1995
e 1970 1996
e 1970 1997
e 1970 1998
e 1970 1999
e 1970 2000
e 1970 2001
e 1970 2002
e 1970 2003
e 1970 2004
e 1970 2005
e 1970 2006
e 1970 2007
e 1970 2008
e 1970 2009
e 1970 2010
e 1970 2011
e 1970 2012
e 1970 2013
e 1970 2014
e 1970 2015
e 1970 2016
e 1970 2017
e 1970 2018
e 1970 2019
e 1970 2020
e 1970 2021
e 1970 2022
e 1970 2023
e 1970 2024
e 1970 2025
e 1970 2026
e 1970 2027
e 1970 2028
e 1970 2029
e 1970 2030
e 1970 2031
e 1970 2032
e 1970 2033
e 1970 2034
e 1970 2035
e 1970 2036
e 1970 2037
e 1970 2038
e 1970 2039
e 1970 2040
e 1970 2041
e 1970 2042
e 1970 2043
e 2044 2045
e 2044 2046
e 2044 2047
e 2044 2048
e 2044 2049
e 2044 2050
e 2044 2051
e 2044 2052
e 2044 2053
e 2044 2054
e 2044 2055
e 2044 2056
e 2044 2057
e 2044 2058
e 2044 2059
e 2044 2060
e 2044 2061
e 2044 2062
e 2044 2063
e 2044 2064
e 2044 2065
e 2044 2066
e 2044 2067
e 2044 2068
e 2044 2069
e 2044 2070
e 2044 2071
e 2044 2072
e 2044 2073
e 2044 2074
e 2044 2075
e 2044 2076
e 2044 2077
e 2044 2078
e 2044 2079
e 2044 2080
e 2044 2081
e 2044 2082
e 2044 2083
e 2044 2084
e 2044 2085
e 2044 2086
e 2044 2087
e 2044 2088
e 2044 2089
e 2044 2090
e 2044 2091
e 2044 2092
e 2044 2093
e 2044 2094
e 2044 2095
e 2044 2096
e 2044 2097
e 2044 2098
e 2044 2099
e 2044 2100
e 2044 2101
e 2044 2102
e 2044 2103
e 2044 2104
e 2044 2105
e 2044 2106
e 2044 2107
e 2044 2108
e 2044 2109
e 2044 2110
e 2044 2111
e 2044 2112
e 2044 2113
e 2044 2114
e 2044 2115
e 2044 2116
e 2044 2117
e 2044 2118
e 2044 2119
e 2044 2120
e 2121 2122
e 2121 2123
e 2121 2124
e 2121 2125
e 2121 2126
e 2121 2127
e 2121 2128
e 2121 2129
e 2121 2130
e 2121 2131
e 2121 2132
e 2121 2133
e 2121 2134
e 2121 2135
e 2121 2136
e 2121 2137
e 2121 2138
e 2121 2139
e 2121 2140
e 2121 2141
e 2121 2142
e 2121 2143
e 2121 2144
e 2121 2145
e 2121 2146
e 2121 2147
e 2121 2148
e 2121 2149
e 2121 2150
e 2121 2151
e 2121 2152
e 2121 2153
e 2121 2154
e 2121 2155
e 2121 2156
e 2121 2157
e 2121 2158
e 2121 2159
e 2121 2160
e 2121 2161
e 2121 2162
e 2121 2163
e 2121 2164
e 2121 2165
e 2121 2166
e 2121 2167
e 2121 2168
e 2121 2169
e 2170 2171
e 2170 2172
e 2170 2173
e 2170 2174
e 2170 2175
e 2170 2176
e 2170 2177
e 2170 2178
e 2170 2179
e 2170 2180
e 2170 2181
e 2170 2182
e 2170 2183
e 2170 2184
e 2170 2185
e 2170 2186
e 2170 2187
e 2170 2188
e 2170 2189
e 2170 2190
e 2170 2191
e 2170 2192
e 2170 2193
e 2170 2194
e 2170 2195
e 2170 2196
e 2170 2197
e 2170 2198
e 2170 2199
e 2170 2200
e 2170 2201
e 2170 2202
e 2170 2203
e 2170 2204
e 2170 2205
e 2170 2206
e 2170 2207
e 2170 2208
e 2170 2209
e 2170 2210
e 2170 2211
e 2170 2212
e 2213 2214
e 2213 2215
e 2213 2216
e 2213 2217
e 2213 2218
e 2213 2219
e 2213 2220
e 2213 2221
e 2213 2222
e 2213 2223
e 2213 2224
e 2213 2225
e 2226 2227
e 2226 2228
e 2226 2229
e 2226 2230
e 2226 2231
e 2226 2232
e 2226 2233
e 2226 2234
e 2226 2235
e 2226 2236
e 2226 2237
e 2226 2238
e 2226 2239
e 2226 2240
e 2226 2241
e 2226 2242
e 2226 2243
e 2226 2244
e 2226 2245
e 2226 2246
e 2226 2247
e 2226 2248
e 2226 2249
e 2226 2250
e 2226 2251
e 2226 2252
e 2226 2253
e 2226 2254
e 2226 2255
e 2226 2256
e 2226 2257
e 2226 2258
e 2226 2259
e 2226 2260
e 2226 2261
e 2226 2262
e 2226 2263
e 2226 2264
e 2226 2265
e 2226 2266
e 2226 2267
e 2226 2268
e 2226 2269
e 2226 2270
e 2226 2271
e 2226 2272
e 2226 2273
e 2226 2274
e 2226 2275
e 2226 2276
e 2226 2277
e 2226 2278
e 2226 2279
e 2226 2280
e 2226 2281
e 2226 2282
e 2226 2283
e 2226 2284
e 2226 2285
e 2226 2286
e 2226 2287
e 2226 2288
e 2226 2289
e 2226 2290
e 2226 2291
e 2226 2292
e 2226 2293
e 2226 2294
e 2226 2295
e 2226 2296
e 2226 2297
e 2226 2298
